p cnf 12 34
1 2 3 0 
4 5 6 0 
7 8 9 0 
10 11 12 0 
-4 -1 -1 0 
-5 -2 -2 0 
-6 -3 -3 0 
-7 -1 -4 0 
-8 -2 -5 0 
-9 -3 -6 0 
-10 -1 -7 0 
-11 -2 -8 0 
-12 -3 -9 0 
-7 -4 -1 0 
-8 -5 -2 0 
-9 -6 -3 0 
-10 -4 -4 0 
-11 -5 -5 0 
-12 -6 -6 0 
-10 -7 -1 0 
-11 -8 -2 0 
-12 -9 -3 0 
-1 -2 0 
-1 -3 0 
-2 -3 0 
-4 -5 0 
-4 -6 0 
-5 -6 0 
-7 -8 0 
-7 -9 0 
-8 -9 0 
-10 -11 0 
-10 -12 0 
-11 -12 0 